c nIsolatedPIs 8
c maxPI 24
p cnf 73 148
c gate 25 5 17 0
5 -25 0
17 -25 0
-5 -17 25 0
c gate 26 6 18 0
6 -26 0
18 -26 0
-6 -18 26 0
c gate 27 -25 -26 0
-25 -27 0
-26 -27 0
25 26 27 0
c gate 28 -7 -19 0
-7 -28 0
-19 -28 0
7 19 28 0
c gate 29 -6 -18 0
-6 -29 0
-18 -29 0
6 18 29 0
c gate 30 -28 -29 0
-28 -30 0
-29 -30 0
28 29 30 0
c gate 31 -27 30 0
-27 -31 0
30 -31 0
27 -30 31 0
c gate 32 7 19 0
7 -32 0
19 -32 0
-7 -19 32 0
c gate 33 8 20 0
8 -33 0
20 -33 0
-8 -20 33 0
c gate 34 -32 -33 0
-32 -34 0
-33 -34 0
32 33 34 0
c gate 35 -31 34 0
-31 -35 0
34 -35 0
31 -34 35 0
c gate 36 9 21 0
9 -36 0
21 -36 0
-9 -21 36 0
c gate 37 10 22 0
10 -37 0
22 -37 0
-10 -22 37 0
c gate 38 -36 -37 0
-36 -38 0
-37 -38 0
36 37 38 0
c gate 39 -11 -23 0
-11 -39 0
-23 -39 0
11 23 39 0
c gate 40 -10 -22 0
-10 -40 0
-22 -40 0
10 22 40 0
c gate 41 -39 -40 0
-39 -41 0
-40 -41 0
39 40 41 0
c gate 42 -8 -20 0
-8 -42 0
-20 -42 0
8 20 42 0
c gate 43 -9 -21 0
-9 -43 0
-21 -43 0
9 21 43 0
c gate 44 -42 -43 0
-42 -44 0
-43 -44 0
42 43 44 0
c gate 45 41 44 0
41 -45 0
44 -45 0
-41 -44 45 0
c gate 46 38 45 0
38 -46 0
45 -46 0
-38 -45 46 0
c gate 47 -35 46 0
-35 -47 0
46 -47 0
35 -46 47 0
c gate 48 -38 -41 0
-38 -48 0
-41 -48 0
38 41 48 0
c gate 49 -47 -48 0
-47 -49 0
-48 -49 0
47 48 49 0
c gate 50 12 24 0
12 -50 0
24 -50 0
-12 -24 50 0
c gate 51 -12 -24 0
-12 -51 0
-24 -51 0
12 24 51 0
c gate 52 11 23 0
11 -52 0
23 -52 0
-11 -23 52 0
c gate 53 -51 -52 0
-51 -53 0
-52 -53 0
51 52 53 0
c gate 54 -50 53 0
-50 -54 0
53 -54 0
50 -53 54 0
c gate 55 -49 54 0
-49 -55 0
54 -55 0
49 -54 55 0
c gate 56 2 14 0
2 -56 0
14 -56 0
-2 -14 56 0
c gate 57 -2 -14 0
-2 -57 0
-14 -57 0
2 14 57 0
c gate 58 1 13 0
1 -58 0
13 -58 0
-1 -13 58 0
c gate 59 -57 58 0
-57 -59 0
58 -59 0
57 -58 59 0
c gate 60 -56 59 0
-56 -60 0
59 -60 0
56 -59 60 0
c gate 61 -3 -15 0
-3 -61 0
-15 -61 0
3 15 61 0
c gate 62 56 -61 0
56 -62 0
-61 -62 0
-56 61 62 0
c gate 63 4 16 0
4 -63 0
16 -63 0
-4 -16 63 0
c gate 64 3 15 0
3 -64 0
15 -64 0
-3 -15 64 0
c gate 65 -63 -64 0
-63 -65 0
-64 -65 0
63 64 65 0
c gate 66 -62 65 0
-62 -66 0
65 -66 0
62 -65 66 0
c gate 67 -5 -17 0
-5 -67 0
-17 -67 0
5 17 67 0
c gate 68 -4 -16 0
-4 -68 0
-16 -68 0
4 16 68 0
c gate 69 -25 -68 0
-25 -69 0
-68 -69 0
25 68 69 0
c gate 70 -67 69 0
-67 -70 0
69 -70 0
67 -69 70 0
c gate 71 -66 70 0
-66 -71 0
70 -71 0
66 -70 71 0
c gate 72 -60 -71 0
-60 -72 0
-71 -72 0
60 71 72 0
c gate 73 -55 72 0
-55 -73 0
72 -73 0
55 -72 73 0
c PO
-73 0
